p cnf 10 27
-7 0
-7 -3 6 0
-7 10 2 -1 0
9 -6 3 7 0
9 1 6 -9 0
-7 6 7 0
-8 -6 -10 0
5 0
1 2 -4 0
-5 -10 0
8 -2 0
10 0
8 0
-3 0
4 6 0
3 -4 -3 -2 0
-5 -9 0
5 -10 0
5 -9 0
3 7 0
-7 10 -4 7 0
-2 0
-7 -3 6 0
3 0
-8 9 5 0
4 -9 0
9 10 -7 0
